
Log started (V11.0.0) Sun Apr 13 14:01:43 2008

Tried aggregator 1 time.
Reduced MIP has 230 rows, 6001 columns, and 12030 nonzeros.
Presolve time =    0.05 sec.
Clique table members: 200.
MIP emphasis: balance optimality and feasibility.
MIP search method: dynamic search.
Parallel mode: none, using 1 thread.
Root relaxation solution time =    0.14 sec.

        Nodes                                         Cuts/
   Node  Left     Objective  IInf  Best Integer     Best Node    ItCnt     Gap

*     0+    0                         9941.0000       26.2224      617   99.74%
*     0+    0                           33.0000       26.2224      617   20.54%
      0     0       27.0000    41       33.0000      Fract: 6      626   18.18%
*     0+    0                           32.0000       27.0000      626   15.62%
*     0+    0                           31.0000       27.0000      626   12.90%

Repeating presolve.
Tried aggregator 1 time.
MIP Presolve eliminated 0 rows and 4256 columns.
Reduced MIP has 230 rows, 1745 columns, and 3518 nonzeros.
Tried aggregator 1 time.
Represolve time =    0.06 sec.
Clique table members: 515.
MIP emphasis: balance optimality and feasibility.
MIP search method: dynamic search.
Parallel mode: none, using 1 thread.
Root relaxation solution time =    0.03 sec.

        Nodes                                         Cuts/
   Node  Left     Objective  IInf  Best Integer     Best Node    ItCnt     Gap

      0     0       27.0000    51       31.0000       27.0000      386   12.90%
      0     2       27.0000    51       31.0000       27.0000      386   12.90%
    100    88       27.0000    56       31.0000       27.0000     3305   12.90%
*   110+   92                           30.0000       27.0000     3499   10.00%
    200   175       28.0000    53       30.0000       27.0000     5771   10.00%
    300   261       29.0000    53       30.0000       27.0000     8217   10.00%
    400   355       29.0000    39       30.0000       27.0000    10298   10.00%
    500   440       29.0000    41       30.0000       28.0000    14958    6.67%
    600   444       29.0000    42       30.0000       28.0000    18769    6.67%
    700   444       28.0000    52       30.0000       28.0000    22794    6.67%
*   789+  259                           29.0000       28.0000    26073    3.45%
    800   255    infeasible             29.0000       28.0000    27311    3.45%
    900   255       28.0000    83       29.0000       28.0000    35268    3.45%
   1000   269       28.0000   101       29.0000       28.0000    42794    3.45%
Elapsed time =  14.11 sec. (tree size =  1.32 MB, solutions = 6)
   1100   315       28.0000   103       29.0000       28.0000    61238    3.45%
   1200   405       28.0000    67       29.0000       28.0000    69750    3.45%
*  1277     0      integral     0       28.0000       28.0000    85800    0.00%

Clique cuts applied:  1
Cover cuts applied:  392
Mixed integer rounding cuts applied:  17
Zero-half cuts applied:  1
Gomory fractional cuts applied:  6

Solution pool: 7 solutions saved.

MIP - Integer optimal solution:  Objective = 2.8000000000e+001
Solution time =   23.36 sec.  Iterations = 85800  Nodes = 1278


Incumbent solution
Variable Name           Solution Value
Cmax                         28.000000
X_1_22                        1.000000
X_2_16                        1.000000
X_3_26                        1.000000
X_4_14                        1.000000
X_5_28                        1.000000
X_6_30                        1.000000
X_7_15                        1.000000
X_8_25                        1.000000
X_9_30                        1.000000
X_10_26                       1.000000
X_11_11                       1.000000
X_12_18                       1.000000
X_13_9                        1.000000
X_14_23                       1.000000
X_15_16                       1.000000
X_16_15                       1.000000
X_17_18                       1.000000
X_18_21                       1.000000
X_19_27                       1.000000
X_20_9                        1.000000
X_21_1                        1.000000
X_22_14                       1.000000
X_23_27                       1.000000
X_24_8                        1.000000
X_25_16                       1.000000
X_26_23                       1.000000
X_27_16                       1.000000
X_28_20                       1.000000
X_29_21                       1.000000
X_30_30                       1.000000
X_31_11                       1.000000
X_32_7                        1.000000
X_33_29                       1.000000
X_34_7                        1.000000
X_35_15                       1.000000
X_36_4                        1.000000
X_37_22                       1.000000
X_38_6                        1.000000
X_39_6                        1.000000
X_40_27                       1.000000
X_41_15                       1.000000
X_42_14                       1.000000
X_43_1                        1.000000
X_44_13                       1.000000
X_45_13                       1.000000
X_46_17                       1.000000
X_47_2                        1.000000
X_48_21                       1.000000
X_49_17                       1.000000
X_50_22                       1.000000
X_51_28                       1.000000
X_52_24                       1.000000
X_53_13                       1.000000
X_54_18                       1.000000
X_55_28                       1.000000
X_56_22                       1.000000
X_57_21                       1.000000
X_58_29                       1.000000
X_59_26                       1.000000
X_60_10                       1.000000
X_61_29                       1.000000
X_62_15                       1.000000
X_63_14                       1.000000
X_64_30                       1.000000
X_65_11                       1.000000
X_66_8                        1.000000
X_67_11                       1.000000
X_68_24                       1.000000
X_69_11                       1.000000
X_70_15                       1.000000
X_71_28                       1.000000
X_72_12                       1.000000
X_73_12                       1.000000
X_74_20                       1.000000
X_75_7                        1.000000
X_76_13                       1.000000
X_77_15                       1.000000
X_78_1                        1.000000
X_79_24                       1.000000
X_80_29                       1.000000
X_81_25                       1.000000
X_82_2                        1.000000
X_83_27                       1.000000
X_84_27                       1.000000
X_85_8                        1.000000
X_86_20                       1.000000
X_87_7                        1.000000
X_88_10                       1.000000
X_89_2                        1.000000
X_90_24                       1.000000
X_91_19                       1.000000
X_92_13                       1.000000
X_93_4                        1.000000
X_94_2                        1.000000
X_95_12                       1.000000
X_96_12                       1.000000
X_97_2                        1.000000
X_98_3                        1.000000
X_99_20                       1.000000
X_100_15                      1.000000
X_101_5                       1.000000
X_102_13                      1.000000
X_103_20                      1.000000
X_104_10                      1.000000
X_105_5                       1.000000
X_106_5                       1.000000
X_107_23                      1.000000
X_108_22                      1.000000
X_109_16                      1.000000
X_110_19                      1.000000
X_111_28                      1.000000
X_112_16                      1.000000
X_113_23                      1.000000
X_114_30                      1.000000
X_115_3                       1.000000
X_116_22                      1.000000
X_117_21                      1.000000
X_118_14                      1.000000
X_119_13                      1.000000
X_120_19                      1.000000
X_121_3                       1.000000
X_122_9                       1.000000
X_123_6                       1.000000
X_124_17                      1.000000
X_125_5                       1.000000
X_126_17                      1.000000
X_127_18                      1.000000
X_128_5                       1.000000
X_129_10                      1.000000
X_130_4                       1.000000
X_131_4                       1.000000
X_132_8                       1.000000
X_133_11                      1.000000
X_134_4                       1.000000
X_135_8                       1.000000
X_136_28                      1.000000
X_137_6                       1.000000
X_138_14                      1.000000
X_139_10                      1.000000
X_140_30                      1.000000
X_141_19                      1.000000
X_142_4                       1.000000
X_143_13                      1.000000
X_144_9                       1.000000
X_145_10                      1.000000
X_146_18                      1.000000
X_147_26                      1.000000
X_148_13                      1.000000
X_149_13                      1.000000
X_150_4                       1.000000
X_151_3                       1.000000
X_152_10                      1.000000
X_153_16                      1.000000
X_154_1                       1.000000
X_155_25                      1.000000
X_156_8                       1.000000
X_157_6                       1.000000
X_158_22                      1.000000
X_159_17                      1.000000
X_160_7                       1.000000
X_161_19                      1.000000
X_162_15                      1.000000
X_163_27                      1.000000
X_164_7                       1.000000
X_165_24                      1.000000
X_166_29                      1.000000
X_167_20                      1.000000
X_168_12                      1.000000
X_169_26                      1.000000
X_170_16                      1.000000
X_171_4                       1.000000
X_172_28                      1.000000
X_173_18                      1.000000
X_174_21                      1.000000
X_175_24                      1.000000
X_176_29                      1.000000
X_177_26                      1.000000
X_178_26                      1.000000
X_179_23                      1.000000
X_180_24                      1.000000
X_181_5                       1.000000
X_182_25                      1.000000
X_183_28                      1.000000
X_184_30                      1.000000
X_185_3                       1.000000
X_186_3                       1.000000
X_187_25                      1.000000
X_188_3                       1.000000
X_189_2                       1.000000
X_190_17                      1.000000
X_191_12                      1.000000
X_192_29                      1.000000
X_193_17                      1.000000
X_194_4                       1.000000
X_195_10                      1.000000
X_196_23                      1.000000
X_197_22                      1.000000
X_198_1                       1.000000
X_199_20                      1.000000
X_200_23                      1.000000
All other variables in the range 1-6001 are 0.
